benchmarks/bfuzz0/309992360227707130023185134301605220727.smt2
(set-logic QF_FP)
(declare-const x0 (_ FloatingPoint 8 24))
(declare-const x1 (_ FloatingPoint 8 24))
(declare-const x2 (_ FloatingPoint 8 24))
(declare-const x3 (_ FloatingPoint 8 24))
(declare-const x4 (_ FloatingPoint 8 24))
(declare-const x5 (_ FloatingPoint 8 24))
(declare-const x6 (_ FloatingPoint 8 24))
(declare-const x7 (_ FloatingPoint 8 24))
(assert (fp.eq (fp.mul RNE (fp.neg x2) (fp.neg x3)) (fp.div RNE (fp.div RNE x1 x4) (fp.add RNE x5 x6))))
(assert (fp.gt (fp.neg (fp.add RNE x3 x5)) (fp.neg (fp.mul RNE x0 x1))))
(check-sat)
