db/data/309992360227707130023185134301605220727.z3.out
sat
-------------------
22.219885595
